31/07/2021 04:23:13 PM ::1 /admin/login.php?
31/07/2021 04:23:23 PM ::1 /admin/login.php?
31/07/2021 04:23:26 PM ::1 /admin/login.php?
31/07/2021 04:24:25 PM ::1 /admin/login.php?
31/07/2021 04:25:05 PM ::1 /admin/login.php?
31/07/2021 04:47:36 PM ::1 /admin/login.php?
31/07/2021 04:57:51 PM ::1 /admin/login.php?
31/07/2021 05:00:23 PM ::1 /admin/login.php?
31/07/2021 05:07:53 PM ::1 /admin/login.php?
31/07/2021 05:20:25 PM ::1 /admin/login.php?
31/07/2021 05:25:04 PM ::1 /admin/login.php?
31/07/2021 05:25:21 PM ::1 /admin/login.php?
31/07/2021 05:25:32 PM ::1 /admin/login.php?
31/07/2021 05:25:35 PM ::1 /admin/login.php?
31/07/2021 05:32:06 PM ::1 /admin/login.php?
31/07/2021 05:32:08 PM ::1 /admin/login.php?
31/07/2021 05:32:08 PM ::1 /admin/login.php?
31/07/2021 05:32:09 PM ::1 /admin/login.php?
